NAME: ACTUAL_TOURS/amz1731
TYPE: TOUR
COMMENT: RouteID_b991aed9-b7b4-4006-be51-0643fe5ee4f4
DIMENSION: 157
TOUR_SECTION
132
125
52
107
118
71
10
28
77
87
25
96
46
55
8
97
89
6
37
57
157
76
4
19
83
20
74
2
80
126
115
91
34
145
146
143
40
35
155
60
128
81
18
36
116
151
131
27
43
26
134
17
64
82
23
142
22
108
49
136
54
92
93
154
88
65
90
113
56
7
150
138
152
16
70
102
103
45
94
53
69
48
139
129
42
62
58
124
13
114
127
29
148
75
144
105
72
31
78
109
39
149
133
84
140
32
104
30
111
5
9
68
147
123
15
33
14
44
95
24
130
79
11
1
120
100
112
67
66
106
137
101
59
12
63
153
117
86
122
51
41
47
99
85
3
38
121
73
98
156
141
110
21
50
135
119
61
-1
EOF
